Test: Urq5_5.cnf
Options: 
WARNING: for repeatability, setting FPU to use double precision
============================[ Problem Statistics ]=============================
|                                                                             |
|  Number of symmetries:           72                                         |
|  Number of invertingSyms:        72                                         |
|  Number of variables:           121                                         |
|  Number of clauses:            1210                                         |
|  Parse time:                   0.00 s                                       |
|                                                                             |
============================[ Search Statistics ]==============================
| Conflicts |          ORIGINAL         |          LEARNT          | Progress |
|           |    Vars  Clauses Literals |    Limit  Clauses Lit/Cl |          |
===============================================================================
===============================================================================
restarts              : 1
conflicts             : 73             (inf /sec)
symconflicts          : 71             (inf /sec)
decisions             : 72             (0.00 % random) (inf /sec)
propagations          : 240            (inf /sec)
sympropagations       : 71             (inf /sec)
conflict literals     : 2506           (0.24 % deleted)
literals     : 2506           (0.24 % deleted)

HEURISTIC USAGES
random                : 0           
activity w/ lookahead : 0           
activity no lookahead : 0           
original sp           : 72          
sym count             : 0           

Memory used           : 6.00 MB
CPU time              : 0 s

UNSATISFIABLE
